c Barbasi and Albert's preferential attachment model G(n, d), whith n = 6, d = 3
c d is the min degree parameter
c
c seed id 1360866350
c
p edge 6 9
e 1 4
e 1 5
e 1 6
e 2 4
e 2 5
e 3 4
e 4 5
e 4 6
e 5 6
